NAME
ROWS
 N  OBJ
 G  c1
 G  c2
 G  c3
 G  c4
 G  c5
 G  c6
 G  c7
 G  c8
 G  c9
 G  c10
 G  c11
 G  c12
 G  c13
 G  c14
 G  c15
 G  c16
 G  c17
 G  c18
 G  c19
 G  c20
 G  c21
 G  c22
 G  c23
 G  c24
 G  c25
 G  c26
 G  c27
 G  c28
 G  c29
 G  c30
 G  c31
 G  c32
 G  c33
 G  c34
 G  c35
 G  c36
 G  c37
 G  c38
 G  c39
 G  c40
 G  c41
 G  c42
 G  c43
 G  c44
 G  c45
 G  c46
 G  c47
 G  c48
 G  c49
 G  c50
 G  c51
 G  c52
 G  c53
 G  c54
 G  c55
 G  c56
 G  c57
 G  c58
 G  c59
 G  c60
 G  c61
 G  c62
 G  c63
 G  c64
 G  c65
 G  c66
 G  c67
 G  c68
 G  c69
 G  c70
 G  c71
 G  c72
 G  c73
 G  c74
 G  c75
 G  c76
 G  c77
 G  c78
 G  c79
 G  c80
COLUMNS
    MARKER    'MARKER'                 'INTORG'
    x[1]      c1        1
    x[1]      c13       1
    x[1]      c17       1
    x[1]      c19       1
    x[1]      c26       1
    x[1]      c41       1
    x[1]      c48       1
    x[1]      c66       1
    x[1]      c71       1
    x[1]      OBJ       1
    x[2]      c2        1
    x[2]      c9        1
    x[2]      c15       1
    x[2]      c20       1
    x[2]      c23       1
    x[2]      c28       1
    x[2]      c32       1
    x[2]      c37       1
    x[2]      c60       1
    x[2]      c70       1
    x[2]      c79       1
    x[2]      OBJ       1
    x[3]      c3        1
    x[3]      c22       1
    x[3]      c29       1
    x[3]      c45       1
    x[3]      c59       1
    x[3]      c75       1
    x[3]      c78       1
    x[3]      c80       1
    x[3]      OBJ       1
    x[4]      c4        1
    x[4]      c10       1
    x[4]      c12       1
    x[4]      c21       1
    x[4]      c29       1
    x[4]      c44       1
    x[4]      c54       1
    x[4]      c67       1
    x[4]      OBJ       1
    x[5]      c5        1
    x[5]      c8        1
    x[5]      c21       1
    x[5]      c23       1
    x[5]      c34       1
    x[5]      c35       1
    x[5]      c51       1
    x[5]      c58       1
    x[5]      c67       1
    x[5]      c68       1
    x[5]      OBJ       1
    x[6]      c6        1
    x[6]      c25       1
    x[6]      c33       1
    x[6]      c39       1
    x[6]      c45       1
    x[6]      c64       1
    x[6]      c72       1
    x[6]      c74       1
    x[6]      c80       1
    x[6]      OBJ       1
    x[7]      c7        1
    x[7]      c23       1
    x[7]      c26       1
    x[7]      c39       1
    x[7]      c46       1
    x[7]      c51       1
    x[7]      c58       1
    x[7]      c74       1
    x[7]      c78       1
    x[7]      OBJ       1
    x[8]      c5        1
    x[8]      c8        1
    x[8]      c25       1
    x[8]      c26       1
    x[8]      c27       1
    x[8]      c32       1
    x[8]      c33       1
    x[8]      c43       1
    x[8]      c53       1
    x[8]      c64       1
    x[8]      c72       1
    x[8]      OBJ       1
    x[9]      c2        1
    x[9]      c9        1
    x[9]      c15       1
    x[9]      c23       1
    x[9]      c28       1
    x[9]      c77       1
    x[9]      OBJ       1
    x[10]     c4        1
    x[10]     c10       1
    x[10]     c13       1
    x[10]     c20       1
    x[10]     c23       1
    x[10]     c29       1
    x[10]     c55       1
    x[10]     c58       1
    x[10]     c66       1
    x[10]     c78       1
    x[10]     OBJ       1
    x[11]     c11       1
    x[11]     c21       1
    x[11]     c25       1
    x[11]     c28       1
    x[11]     c39       1
    x[11]     c46       1
    x[11]     c47       1
    x[11]     c55       1
    x[11]     c59       1
    x[11]     c74       1
    x[11]     c75       1
    x[11]     c76       1
    x[11]     OBJ       1
    x[12]     c4        1
    x[12]     c12       1
    x[12]     c32       1
    x[12]     c35       1
    x[12]     c36       1
    x[12]     c37       1
    x[12]     c50       1
    x[12]     c54       1
    x[12]     c56       1
    x[12]     OBJ       1
    x[13]     c1        1
    x[13]     c10       1
    x[13]     c13       1
    x[13]     c28       1
    x[13]     c32       1
    x[13]     c42       1
    x[13]     c52       1
    x[13]     c67       1
    x[13]     c68       1
    x[13]     c75       1
    x[13]     OBJ       1
    x[14]     c14       1
    x[14]     c20       1
    x[14]     c25       1
    x[14]     c31       1
    x[14]     c43       1
    x[14]     c48       1
    x[14]     c78       1
    x[14]     OBJ       1
    x[15]     c2        1
    x[15]     c9        1
    x[15]     c15       1
    x[15]     c28       1
    x[15]     c35       1
    x[15]     c42       1
    x[15]     c44       1
    x[15]     c49       1
    x[15]     c52       1
    x[15]     c59       1
    x[15]     c71       1
    x[15]     c78       1
    x[15]     OBJ       1
    x[16]     c16       1
    x[16]     c19       1
    x[16]     c22       1
    x[16]     c24       1
    x[16]     c28       1
    x[16]     c34       1
    x[16]     c46       1
    x[16]     c52       1
    x[16]     c53       1
    x[16]     c61       1
    x[16]     c71       1
    x[16]     c73       1
    x[16]     OBJ       1
    x[17]     c1        1
    x[17]     c17       1
    x[17]     c30       1
    x[17]     c46       1
    x[17]     c47       1
    x[17]     c73       1
    x[17]     OBJ       1
    x[18]     c18       1
    x[18]     c22       1
    x[18]     c35       1
    x[18]     c60       1
    x[18]     c70       1
    x[18]     c75       1
    x[18]     c79       1
    x[18]     OBJ       1
    x[19]     c1        1
    x[19]     c16       1
    x[19]     c19       1
    x[19]     c30       1
    x[19]     c51       1
    x[19]     c68       1
    x[19]     c74       1
    x[19]     OBJ       1
    x[20]     c2        1
    x[20]     c10       1
    x[20]     c14       1
    x[20]     c20       1
    x[20]     c22       1
    x[20]     c28       1
    x[20]     c29       1
    x[20]     c32       1
    x[20]     c66       1
    x[20]     OBJ       1
    x[21]     c4        1
    x[21]     c5        1
    x[21]     c11       1
    x[21]     c21       1
    x[21]     c36       1
    x[21]     c50       1
    x[21]     OBJ       1
    x[22]     c3        1
    x[22]     c16       1
    x[22]     c18       1
    x[22]     c20       1
    x[22]     c22       1
    x[22]     c34       1
    x[22]     c39       1
    x[22]     c45       1
    x[22]     c46       1
    x[22]     c50       1
    x[22]     c56       1
    x[22]     c69       1
    x[22]     c70       1
    x[22]     OBJ       1
    x[23]     c2        1
    x[23]     c5        1
    x[23]     c7        1
    x[23]     c9        1
    x[23]     c10       1
    x[23]     c23       1
    x[23]     c24       1
    x[23]     c56       1
    x[23]     c75       1
    x[23]     OBJ       1
    x[24]     c16       1
    x[24]     c23       1
    x[24]     c24       1
    x[24]     c37       1
    x[24]     c58       1
    x[24]     c59       1
    x[24]     c71       1
    x[24]     c78       1
    x[24]     c80       1
    x[24]     OBJ       1
    x[25]     c6        1
    x[25]     c8        1
    x[25]     c11       1
    x[25]     c14       1
    x[25]     c25       1
    x[25]     c34       1
    x[25]     c36       1
    x[25]     c38       1
    x[25]     c42       1
    x[25]     c43       1
    x[25]     c46       1
    x[25]     c70       1
    x[25]     OBJ       1
    x[26]     c1        1
    x[26]     c7        1
    x[26]     c8        1
    x[26]     c26       1
    x[26]     c38       1
    x[26]     c55       1
    x[26]     c68       1
    x[26]     OBJ       1
    x[27]     c8        1
    x[27]     c27       1
    x[27]     c41       1
    x[27]     c46       1
    x[27]     c58       1
    x[27]     c60       1
    x[27]     c75       1
    x[27]     OBJ       1
    x[28]     c2        1
    x[28]     c9        1
    x[28]     c11       1
    x[28]     c13       1
    x[28]     c15       1
    x[28]     c16       1
    x[28]     c20       1
    x[28]     c28       1
    x[28]     c33       1
    x[28]     c38       1
    x[28]     c57       1
    x[28]     c58       1
    x[28]     OBJ       1
    x[29]     c3        1
    x[29]     c4        1
    x[29]     c10       1
    x[29]     c20       1
    x[29]     c29       1
    x[29]     c36       1
    x[29]     c45       1
    x[29]     c47       1
    x[29]     c69       1
    x[29]     c72       1
    x[29]     c78       1
    x[29]     OBJ       1
    x[30]     c17       1
    x[30]     c19       1
    x[30]     c30       1
    x[30]     c31       1
    x[30]     c33       1
    x[30]     c38       1
    x[30]     c59       1
    x[30]     c64       1
    x[30]     c66       1
    x[30]     c69       1
    x[30]     c72       1
    x[30]     OBJ       1
    x[31]     c14       1
    x[31]     c30       1
    x[31]     c31       1
    x[31]     c35       1
    x[31]     c46       1
    x[31]     c59       1
    x[31]     c69       1
    x[31]     OBJ       1
    x[32]     c2        1
    x[32]     c8        1
    x[32]     c12       1
    x[32]     c13       1
    x[32]     c20       1
    x[32]     c32       1
    x[32]     c35       1
    x[32]     c59       1
    x[32]     c65       1
    x[32]     c66       1
    x[32]     c71       1
    x[32]     c74       1
    x[32]     OBJ       1
    x[33]     c6        1
    x[33]     c8        1
    x[33]     c28       1
    x[33]     c30       1
    x[33]     c33       1
    x[33]     c41       1
    x[33]     OBJ       1
    x[34]     c5        1
    x[34]     c16       1
    x[34]     c22       1
    x[34]     c25       1
    x[34]     c34       1
    x[34]     c36       1
    x[34]     c37       1
    x[34]     c47       1
    x[34]     c77       1
    x[34]     OBJ       1
    x[35]     c5        1
    x[35]     c12       1
    x[35]     c15       1
    x[35]     c18       1
    x[35]     c31       1
    x[35]     c32       1
    x[35]     c35       1
    x[35]     c50       1
    x[35]     c66       1
    x[35]     c79       1
    x[35]     OBJ       1
    x[36]     c12       1
    x[36]     c21       1
    x[36]     c25       1
    x[36]     c29       1
    x[36]     c34       1
    x[36]     c36       1
    x[36]     c43       1
    x[36]     c44       1
    x[36]     c53       1
    x[36]     c76       1
    x[36]     c78       1
    x[36]     OBJ       1
    x[37]     c2        1
    x[37]     c12       1
    x[37]     c24       1
    x[37]     c34       1
    x[37]     c37       1
    x[37]     c51       1
    x[37]     OBJ       1
    x[38]     c25       1
    x[38]     c26       1
    x[38]     c28       1
    x[38]     c30       1
    x[38]     c38       1
    x[38]     c46       1
    x[38]     c47       1
    x[38]     c52       1
    x[38]     c66       1
    x[38]     c67       1
    x[38]     c79       1
    x[38]     c80       1
    x[38]     OBJ       1
    x[39]     c6        1
    x[39]     c7        1
    x[39]     c11       1
    x[39]     c22       1
    x[39]     c39       1
    x[39]     c41       1
    x[39]     OBJ       1
    x[40]     c40       1
    x[40]     c51       1
    x[40]     c57       1
    x[40]     OBJ       1
    x[41]     c1        1
    x[41]     c27       1
    x[41]     c33       1
    x[41]     c39       1
    x[41]     c41       1
    x[41]     c48       1
    x[41]     c66       1
    x[41]     c69       1
    x[41]     OBJ       1
    x[42]     c13       1
    x[42]     c15       1
    x[42]     c25       1
    x[42]     c42       1
    x[42]     c43       1
    x[42]     c55       1
    x[42]     c58       1
    x[42]     c65       1
    x[42]     c70       1
    x[42]     OBJ       1
    x[43]     c8        1
    x[43]     c14       1
    x[43]     c25       1
    x[43]     c36       1
    x[43]     c42       1
    x[43]     c43       1
    x[43]     c44       1
    x[43]     c62       1
    x[43]     c68       1
    x[43]     c70       1
    x[43]     OBJ       1
    x[44]     c4        1
    x[44]     c15       1
    x[44]     c36       1
    x[44]     c43       1
    x[44]     c44       1
    x[44]     c52       1
    x[44]     c66       1
    x[44]     c67       1
    x[44]     c69       1
    x[44]     c80       1
    x[44]     OBJ       1
    x[45]     c3        1
    x[45]     c6        1
    x[45]     c22       1
    x[45]     c29       1
    x[45]     c45       1
    x[45]     c64       1
    x[45]     c68       1
    x[45]     c75       1
    x[45]     OBJ       1
    x[46]     c7        1
    x[46]     c11       1
    x[46]     c16       1
    x[46]     c17       1
    x[46]     c22       1
    x[46]     c25       1
    x[46]     c27       1
    x[46]     c31       1
    x[46]     c38       1
    x[46]     c46       1
    x[46]     c53       1
    x[46]     c61       1
    x[46]     c80       1
    x[46]     OBJ       1
    x[47]     c11       1
    x[47]     c17       1
    x[47]     c29       1
    x[47]     c34       1
    x[47]     c38       1
    x[47]     c47       1
    x[47]     c59       1
    x[47]     c66       1
    x[47]     OBJ       1
    x[48]     c1        1
    x[48]     c14       1
    x[48]     c41       1
    x[48]     c48       1
    x[48]     c55       1
    x[48]     c60       1
    x[48]     OBJ       1
    x[49]     c15       1
    x[49]     c49       1
    x[49]     c55       1
    x[49]     c65       1
    x[49]     c74       1
    x[49]     OBJ       1
    x[50]     c12       1
    x[50]     c21       1
    x[50]     c22       1
    x[50]     c35       1
    x[50]     c50       1
    x[50]     c57       1
    x[50]     c59       1
    x[50]     c78       1
    x[50]     c79       1
    x[50]     OBJ       1
    x[51]     c5        1
    x[51]     c7        1
    x[51]     c19       1
    x[51]     c37       1
    x[51]     c40       1
    x[51]     c51       1
    x[51]     c69       1
    x[51]     OBJ       1
    x[52]     c13       1
    x[52]     c15       1
    x[52]     c16       1
    x[52]     c38       1
    x[52]     c44       1
    x[52]     c52       1
    x[52]     c58       1
    x[52]     c60       1
    x[52]     c62       1
    x[52]     c65       1
    x[52]     c67       1
    x[52]     c69       1
    x[52]     c70       1
    x[52]     c73       1
    x[52]     OBJ       1
    x[53]     c8        1
    x[53]     c16       1
    x[53]     c36       1
    x[53]     c46       1
    x[53]     c53       1
    x[53]     c66       1
    x[53]     c74       1
    x[53]     c76       1
    x[53]     c77       1
    x[53]     c79       1
    x[53]     OBJ       1
    x[54]     c4        1
    x[54]     c12       1
    x[54]     c54       1
    x[54]     c62       1
    x[54]     c66       1
    x[54]     OBJ       1
    x[55]     c10       1
    x[55]     c11       1
    x[55]     c26       1
    x[55]     c42       1
    x[55]     c48       1
    x[55]     c49       1
    x[55]     c55       1
    x[55]     c67       1
    x[55]     c72       1
    x[55]     c79       1
    x[55]     OBJ       1
    x[56]     c12       1
    x[56]     c22       1
    x[56]     c23       1
    x[56]     c56       1
    x[56]     c58       1
    x[56]     c73       1
    x[56]     OBJ       1
    x[57]     c28       1
    x[57]     c40       1
    x[57]     c50       1
    x[57]     c57       1
    x[57]     c58       1
    x[57]     c65       1
    x[57]     c71       1
    x[57]     OBJ       1
    x[58]     c5        1
    x[58]     c7        1
    x[58]     c10       1
    x[58]     c24       1
    x[58]     c27       1
    x[58]     c28       1
    x[58]     c42       1
    x[58]     c52       1
    x[58]     c56       1
    x[58]     c57       1
    x[58]     c58       1
    x[58]     c77       1
    x[58]     c80       1
    x[58]     OBJ       1
    x[59]     c3        1
    x[59]     c11       1
    x[59]     c15       1
    x[59]     c24       1
    x[59]     c30       1
    x[59]     c31       1
    x[59]     c32       1
    x[59]     c47       1
    x[59]     c50       1
    x[59]     c59       1
    x[59]     c71       1
    x[59]     c76       1
    x[59]     c77       1
    x[59]     OBJ       1
    x[60]     c2        1
    x[60]     c18       1
    x[60]     c27       1
    x[60]     c48       1
    x[60]     c52       1
    x[60]     c60       1
    x[60]     c64       1
    x[60]     OBJ       1
    x[61]     c16       1
    x[61]     c46       1
    x[61]     c61       1
    x[61]     c75       1
    x[61]     OBJ       1
    x[62]     c43       1
    x[62]     c52       1
    x[62]     c54       1
    x[62]     c62       1
    x[62]     c63       1
    x[62]     c70       1
    x[62]     c74       1
    x[62]     OBJ       1
    x[63]     c62       1
    x[63]     c63       1
    x[63]     c72       1
    x[63]     c77       1
    x[63]     OBJ       1
    x[64]     c6        1
    x[64]     c8        1
    x[64]     c30       1
    x[64]     c45       1
    x[64]     c60       1
    x[64]     c64       1
    x[64]     c66       1
    x[64]     c70       1
    x[64]     OBJ       1
    x[65]     c32       1
    x[65]     c42       1
    x[65]     c49       1
    x[65]     c52       1
    x[65]     c57       1
    x[65]     c65       1
    x[65]     c70       1
    x[65]     c73       1
    x[65]     OBJ       1
    x[66]     c1        1
    x[66]     c10       1
    x[66]     c20       1
    x[66]     c30       1
    x[66]     c32       1
    x[66]     c35       1
    x[66]     c38       1
    x[66]     c41       1
    x[66]     c44       1
    x[66]     c47       1
    x[66]     c53       1
    x[66]     c54       1
    x[66]     c64       1
    x[66]     c66       1
    x[66]     c77       1
    x[66]     OBJ       1
    x[67]     c4        1
    x[67]     c5        1
    x[67]     c13       1
    x[67]     c38       1
    x[67]     c44       1
    x[67]     c52       1
    x[67]     c55       1
    x[67]     c67       1
    x[67]     OBJ       1
    x[68]     c5        1
    x[68]     c13       1
    x[68]     c19       1
    x[68]     c26       1
    x[68]     c43       1
    x[68]     c45       1
    x[68]     c68       1
    x[68]     c73       1
    x[68]     c76       1
    x[68]     OBJ       1
    x[69]     c22       1
    x[69]     c29       1
    x[69]     c30       1
    x[69]     c31       1
    x[69]     c41       1
    x[69]     c44       1
    x[69]     c51       1
    x[69]     c52       1
    x[69]     c69       1
    x[69]     c70       1
    x[69]     OBJ       1
    x[70]     c2        1
    x[70]     c18       1
    x[70]     c22       1
    x[70]     c25       1
    x[70]     c42       1
    x[70]     c43       1
    x[70]     c52       1
    x[70]     c62       1
    x[70]     c64       1
    x[70]     c65       1
    x[70]     c69       1
    x[70]     c70       1
    x[70]     OBJ       1
    x[71]     c1        1
    x[71]     c15       1
    x[71]     c16       1
    x[71]     c24       1
    x[71]     c32       1
    x[71]     c57       1
    x[71]     c59       1
    x[71]     c71       1
    x[71]     c75       1
    x[71]     OBJ       1
    x[72]     c6        1
    x[72]     c8        1
    x[72]     c29       1
    x[72]     c30       1
    x[72]     c55       1
    x[72]     c63       1
    x[72]     c72       1
    x[72]     c75       1
    x[72]     OBJ       1
    x[73]     c16       1
    x[73]     c17       1
    x[73]     c52       1
    x[73]     c56       1
    x[73]     c65       1
    x[73]     c68       1
    x[73]     c73       1
    x[73]     c75       1
    x[73]     OBJ       1
    x[74]     c6        1
    x[74]     c7        1
    x[74]     c11       1
    x[74]     c19       1
    x[74]     c32       1
    x[74]     c49       1
    x[74]     c53       1
    x[74]     c62       1
    x[74]     c74       1
    x[74]     c79       1
    x[74]     OBJ       1
    x[75]     c3        1
    x[75]     c11       1
    x[75]     c13       1
    x[75]     c18       1
    x[75]     c23       1
    x[75]     c27       1
    x[75]     c45       1
    x[75]     c61       1
    x[75]     c71       1
    x[75]     c72       1
    x[75]     c73       1
    x[75]     c75       1
    x[75]     OBJ       1
    x[76]     c11       1
    x[76]     c36       1
    x[76]     c53       1
    x[76]     c59       1
    x[76]     c68       1
    x[76]     c76       1
    x[76]     OBJ       1
    x[77]     c9        1
    x[77]     c34       1
    x[77]     c53       1
    x[77]     c58       1
    x[77]     c59       1
    x[77]     c63       1
    x[77]     c66       1
    x[77]     c77       1
    x[77]     OBJ       1
    x[78]     c3        1
    x[78]     c7        1
    x[78]     c10       1
    x[78]     c14       1
    x[78]     c15       1
    x[78]     c24       1
    x[78]     c29       1
    x[78]     c36       1
    x[78]     c50       1
    x[78]     c78       1
    x[78]     OBJ       1
    x[79]     c2        1
    x[79]     c18       1
    x[79]     c35       1
    x[79]     c38       1
    x[79]     c50       1
    x[79]     c53       1
    x[79]     c55       1
    x[79]     c74       1
    x[79]     c79       1
    x[79]     OBJ       1
    x[80]     c3        1
    x[80]     c6        1
    x[80]     c24       1
    x[80]     c38       1
    x[80]     c44       1
    x[80]     c46       1
    x[80]     c58       1
    x[80]     c80       1
    x[80]     OBJ       1
    MARKER    'MARKER'                 'INTEND'
RHS
    rhs       c1        1
    rhs       c2        1
    rhs       c3        1
    rhs       c4        1
    rhs       c5        1
    rhs       c6        1
    rhs       c7        1
    rhs       c8        1
    rhs       c9        1
    rhs       c10       1
    rhs       c11       1
    rhs       c12       1
    rhs       c13       1
    rhs       c14       1
    rhs       c15       1
    rhs       c16       1
    rhs       c17       1
    rhs       c18       1
    rhs       c19       1
    rhs       c20       1
    rhs       c21       1
    rhs       c22       1
    rhs       c23       1
    rhs       c24       1
    rhs       c25       1
    rhs       c26       1
    rhs       c27       1
    rhs       c28       1
    rhs       c29       1
    rhs       c30       1
    rhs       c31       1
    rhs       c32       1
    rhs       c33       1
    rhs       c34       1
    rhs       c35       1
    rhs       c36       1
    rhs       c37       1
    rhs       c38       1
    rhs       c39       1
    rhs       c40       1
    rhs       c41       1
    rhs       c42       1
    rhs       c43       1
    rhs       c44       1
    rhs       c45       1
    rhs       c46       1
    rhs       c47       1
    rhs       c48       1
    rhs       c49       1
    rhs       c50       1
    rhs       c51       1
    rhs       c52       1
    rhs       c53       1
    rhs       c54       1
    rhs       c55       1
    rhs       c56       1
    rhs       c57       1
    rhs       c58       1
    rhs       c59       1
    rhs       c60       1
    rhs       c61       1
    rhs       c62       1
    rhs       c63       1
    rhs       c64       1
    rhs       c65       1
    rhs       c66       1
    rhs       c67       1
    rhs       c68       1
    rhs       c69       1
    rhs       c70       1
    rhs       c71       1
    rhs       c72       1
    rhs       c73       1
    rhs       c74       1
    rhs       c75       1
    rhs       c76       1
    rhs       c77       1
    rhs       c78       1
    rhs       c79       1
    rhs       c80       1
RANGES
BOUNDS
 BV bounds    x[1]
 BV bounds    x[2]
 BV bounds    x[3]
 BV bounds    x[4]
 BV bounds    x[5]
 BV bounds    x[6]
 BV bounds    x[7]
 BV bounds    x[8]
 BV bounds    x[9]
 BV bounds    x[10]
 BV bounds    x[11]
 BV bounds    x[12]
 BV bounds    x[13]
 BV bounds    x[14]
 BV bounds    x[15]
 BV bounds    x[16]
 BV bounds    x[17]
 BV bounds    x[18]
 BV bounds    x[19]
 BV bounds    x[20]
 BV bounds    x[21]
 BV bounds    x[22]
 BV bounds    x[23]
 BV bounds    x[24]
 BV bounds    x[25]
 BV bounds    x[26]
 BV bounds    x[27]
 BV bounds    x[28]
 BV bounds    x[29]
 BV bounds    x[30]
 BV bounds    x[31]
 BV bounds    x[32]
 BV bounds    x[33]
 BV bounds    x[34]
 BV bounds    x[35]
 BV bounds    x[36]
 BV bounds    x[37]
 BV bounds    x[38]
 BV bounds    x[39]
 BV bounds    x[40]
 BV bounds    x[41]
 BV bounds    x[42]
 BV bounds    x[43]
 BV bounds    x[44]
 BV bounds    x[45]
 BV bounds    x[46]
 BV bounds    x[47]
 BV bounds    x[48]
 BV bounds    x[49]
 BV bounds    x[50]
 BV bounds    x[51]
 BV bounds    x[52]
 BV bounds    x[53]
 BV bounds    x[54]
 BV bounds    x[55]
 BV bounds    x[56]
 BV bounds    x[57]
 BV bounds    x[58]
 BV bounds    x[59]
 BV bounds    x[60]
 BV bounds    x[61]
 BV bounds    x[62]
 BV bounds    x[63]
 BV bounds    x[64]
 BV bounds    x[65]
 BV bounds    x[66]
 BV bounds    x[67]
 BV bounds    x[68]
 BV bounds    x[69]
 BV bounds    x[70]
 BV bounds    x[71]
 BV bounds    x[72]
 BV bounds    x[73]
 BV bounds    x[74]
 BV bounds    x[75]
 BV bounds    x[76]
 BV bounds    x[77]
 BV bounds    x[78]
 BV bounds    x[79]
 BV bounds    x[80]
ENDATA
